param set_len = 18;
param target := 643249717;
set values := 16016161, 80854890, 49287959, 129335283, 36148869, 26618120, 24346588, 75328762, 91698798, 101554599, 123530748, 90773997, 12465080, 88188487, 2352327, 2373993, 123279563, 79414974, ;
